32      4       
19      17      16      19      
0       0       0       0       0       1       2       
9       0       8       16      0       1       3       
4       0       0       3       1       2       4       8       
5       6       0       1       0       1       5       
6       0       9       0       15      2       6       7       
4       0       6       13      0       2       9       12      
5       1       11      0       0       1       10      
10      0       4       9       0       1       9       
4       0       2       0       1       2       11      13      
3       0       5       0       19      2       11      13      
4       8       0       1       0       3       14      15      17      
7       6       0       0       8       3       14      15      17      
5       12      0       3       0       1       14      
2       1       0       4       0       3       16      18      24      
5       0       7       0       1       2       16      24      
3       0       2       0       4       3       19      20      22      
10      14      7       0       0       3       19      20      23      
5       9       0       16      0       3       20      22      23      
10      0       12      3       0       1       21      
5       8       0       0       11      1       25      
8       4       0       0       6       1       25      
5       0       1       0       2       1       25      
5       8       6       0       0       1       25      
3       0       8       8       0       1       25      
1       6       0       1       0       2       26      27      
1       14      0       0       10      2       28      29      
4       0       0       11      8       1       28      
2       0       0       5       10      2       30      31      
9       5       0       0       10      1       30      
6       0       14      2       0       1       32      
8       12      0       0       8       1       32      
0       0       0       0       0       0       
